networks/zoo_176_4085/zoo_176_4085.txt
Number of groups: 83
Flow 9: {50 21} {21 23} {23 116} 
Flow 19: {1 2} {2 50} {50 52} {52 145} 
Flow 93: {70 71} {71 72} {72 165} 
Flow 95: {18 75} {75 74} {74 167} 
Flow 200: {2 95} 
Flow 206: {13 10} {10 103} 
Flow 211: {52 42} {42 15} {15 108} 
Flow 227: {14 31} {31 124} 
Flow 263: {5 70} {70 163} 
Flow 280: {6 5} {5 13} {13 11} {11 104} 
Flow 318: {6 3} {3 64} {64 65} {65 158} 
Flow 352: {7 50} {50 49} {49 38} {38 43} {43 136} 
Flow 379: {8 12} {12 49} {49 39} {39 132} 
Flow 388: {9 50} {50 7} {7 100} 
Flow 438: {10 13} {13 5} {5 4} {4 3} {3 96} 
Flow 445: {10 11} {11 46} {46 41} {41 134} 
Flow 517: {22 79} {79 80} {80 173} 
Flow 780: {29 37} {37 54} {54 147} 
Flow 804: {81 82} {82 175} 
Flow 898: {19 23} {23 21} {21 50} {50 143} 
Flow 1015: {80 76} {76 24} {24 25} {25 118} 
Flow 1058: {74 78} {78 81} {81 67} {67 73} {73 166} 
Flow 1118: {23 19} {19 18} {18 111} 
Flow 1149: {11 10} 
Flow 1156: {76 80} {80 79} {79 22} {22 17} {17 110} 
Flow 1236: {17 16} {16 20} {20 21} {21 114} 
Flow 1244: {68 33} {33 126} 
Flow 1276: {25 69} {69 68} {68 161} 
Flow 1299: {26 24} {24 76} {76 77} {77 78} {78 171} 
Flow 1361: {28 51} {51 52} {52 49} {49 142} 
Flow 1424: {30 12} {12 105} 
Flow 1487: {31 14} {14 68} {68 69} {69 162} 
Flow 1507: {32 33} {33 68} {68 14} {14 24} {24 117} 
Flow 1612: {71 70} {70 5} {5 6} 
Flow 1625: {34 24} {24 57} {57 27} {27 120} 
Flow 1737: {36 53} {53 51} {51 144} 
Flow 1794: {37 29} {29 51} {51 15} {15 42} {42 135} 
Flow 1846: {40 41} {41 39} {39 45} {45 44} {44 137} 
Flow 1925: {42 52} {52 50} {50 2} {2 1} {1 94} 
Flow 1968: {15 51} {51 55} {55 148} 
Flow 2012: {43 38} {38 131} 
Flow 2022: {51 53} {53 146} 
Flow 2026: {38 49} {49 52} {52 51} {51 61} {61 154} 
Flow 2039: {72 66} {66 81} {81 174} 
Flow 2133: {41 46} {46 47} {47 140} 
Flow 2166: {46 49} {49 50} {50 9} {9 102} 
Flow 2177: {21 20} {20 16} {16 17} {17 22} {22 115} 
Flow 2188: {27 58} {58 35} {35 128} 
Flow 2249: {47 46} {46 139} 
Flow 2301: {12 30} {30 123} 
Flow 2306: {53 36} {36 129} 
Flow 2325: {57 150} 
Flow 2440: {49 46} {46 11} {11 13} {13 106} 
Flow 2568: {44 5} {5 98} 
Flow 2588: {55 51} {51 28} {28 121} 
Flow 2616: {55 48} {48 61} {61 63} {63 156} 
Flow 2658: {56 36} {36 37} {37 130} 
Flow 2710: {35 24} {24 26} {26 119} 
Flow 2732: {58 27} {27 60} {60 153} 
Flow 2809: {60 27} {27 57} {57 24} {24 14} {14 107} 
Flow 2882: {62 27} {27 59} {59 29} {29 122} 
Flow 2927: {63 61} {61 51} {51 29} {29 59} {59 152} 
Flow 2951: {39 49} {49 12} {12 8} {8 101} 
Flow 2981: {3 4} {4 5} {5 44} {44 45} {45 138} 
Flow 3000: {65 71} {71 73} {73 67} {67 160} 
Flow 3017: {64 3} {3 6} {6 99} 
Flow 3229: {69 25} {25 24} {24 34} {34 127} 
Flow 3323: {59 27} {27 62} {62 155} 
Flow 3336: {77 76} {76 169} 
Flow 3355: {20 113} 
Flow 3490: {45 39} {39 41} {41 40} {40 133} 
Flow 3518: {73 71} {71 164} 
Flow 3528: {67 81} {81 78} {78 83} {83 176} 
Flow 3580: {66 72} {72 71} {71 65} {65 64} {64 157} 
Flow 3607: {75 18} {18 16} {16 109} 
Flow 3799: {24 35} {35 58} {58 151} 
Flow 3884: {16 18} {18 19} {19 112} 
Flow 3971: {37 36} {36 56} {56 149} 
Flow 4025: {82 81} {81 66} {66 159} 
Flow 4029: {78 74} {74 75} {75 168} 
Flow 4034: {82 83} 
Flow 4082: {83 78} {78 77} {77 170} 
Flow 4085: {83 82} 
Time taken running everything: 367 seconds
